NAME : kroB150.31927.tour
COMMENT : Cost = 0_31927
COMMENT : Found by LKH [Keld Helsgaun] Thu Nov 16 16:24:24 2017
TYPE : TOUR
DIMENSION : 159
TOUR_SECTION
1
53
159
24
117
32
132
142
61
26
7
82
78
9
146
135
51
127
128
103
48
84
11
52
150
87
96
144
97
136
81
45
33
100
74
57
36
14
141
99
10
92
19
105
66
44
63
16
120
37
29
18
49
93
143
4
116
60
140
69
3
73
118
59
41
89
122
21
30
68
2
35
23
102
70
111
76
121
139
131
129
94
123
91
95
50
133
86
43
5
119
56
101
28
39
38
71
124
72
126
83
62
138
113
108
114
145
109
98
148
88
58
34
90
25
17
106
8
112
22
75
134
54
6
149
104
80
77
115
147
65
31
47
67
55
42
64
20
110
79
13
130
107
158
46
157
12
156
15
155
125
154
27
153
40
152
137
151
85
-1
EOF
